Ipopt 3.14.13: outlev = 0
expect_infeasible_problem = yes
bound_push = 0.01
bound_frac = 0.01
nlp_scaling_method = gradient-based


******************************************************************************
This program contains Ipopt, a library for large-scale nonlinear optimization.
 Ipopt is released as open source code under the Eclipse Public License (EPL).
         For more information visit https://github.com/coin-or/Ipopt
******************************************************************************

 
Ipopt 3.14.13: Solved To Acceptable Level.

suffix ipopt_zU_out OUT;
suffix ipopt_zL_out OUT;
total_cost: 9007282.800920501 

*******************************************************************************
Gurobi 12.0.1: Set parameter LogToConsole to value 1
  tech:outlev = 1
Set parameter Presolve to value 1
  pre:solve = 1
Set parameter TimeLimit to value 3600
  lim:time = 3600
  alg:iisfind = 1
Set parameter NumericFocus to value 1
  alg:numericfocus = 1
  cvt:socp = 2
Set parameter Method to value 3
  alg:method = 3
Set parameter NodeMethod to value 1
  mip:nodemethod = 1
Set parameter ConcurrentMethod to value 3
  alg:concurrentmethod = 3
Set parameter NonConvex to value 2
  qp:nonconvex = 2
Set parameter VarBranch to value 0
  mip:varbranch = 0
Set parameter OBBT to value 1
  mip:obbt = 1
  alg:start = 1
  alg:basis = 1
Set parameter InfUnbdInfo to value 1
Gurobi Optimizer version 12.0.1 build v12.0.1rc0 (linux64 - "Debian GNU/Linux 12 (bookworm)")

CPU model: AMD Ryzen Threadripper PRO 5975WX 32-Cores, instruction set [SSE2|AVX|AVX2]
Thread count: 32 physical cores, 64 logical processors, using up to 32 threads

Non-default parameters:
TimeLimit  3600
Method  3
ConcurrentMethod  3
NodeMethod  1
OBBT  1
VarBranch  0
InfUnbdInfo  1
NonConvex  2
NumericFocus  1
Presolve  1

Optimize a model with 516 rows, 3748 columns and 3605 nonzeros
Model fingerprint: 0x2cafe986
Model has 174 simple general constraints
  174 ABS
Model has 174 general nonlinear constraints (8352 nonlinear terms)
Variable types: 3748 continuous, 0 integer (0 binary)
Coefficient statistics:
  Matrix range     [1e-11, 6e+01]
  Objective range  [1e+02, 3e+03]
  Bounds range     [1e-03, 2e+06]
  RHS range        [2e-03, 9e+02]

User MIP start did not produce a new incumbent solution

Presolve model has 174 nlconstr
Added 5046 variables to disaggregate expressions.
Presolve added 487 rows and 0 columns
Presolve removed 0 rows and 148 columns
Presolve time: 0.19s
Presolved: 14227 rows, 8647 columns, 38468 nonzeros
Presolved model has 344 SOS constraint(s)
Presolved model has 2436 bilinear constraint(s)
Presolved model has 174 nonlinear constraint(s)

Solving non-convex MINLP

Variable types: 8303 continuous, 344 integer (344 binary)

Concurrent LP optimizer: primal and dual simplex (primal and dual model)
Showing primal log only...

Root relaxation presolved: 11594 rows, 5605 columns, 32906 nonzeros


Root simplex log...

Iteration    Objective       Primal Inf.    Dual Inf.      Time
    5675    1.6886756e+07   2.565755e+05   6.984351e+08      5s

Solved with dual simplex

Root relaxation: objective 1.341970e+06, 4486 iterations, 1.68 seconds (0.19 work units)

    Nodes    |    Current Node    |     Objective Bounds      |     Work
 Expl Unexpl |  Obj  Depth IntInf | Incumbent    BestBd   Gap | It/Node Time

     0     0 1341969.78    0  638          - 1341969.78      -     -    6s
     0     0 1341969.78    0  592          - 1341969.78      -     -    7s
     0     0 1341969.78    0  596          - 1341969.78      -     -    7s
     0     0 1341969.78    0  894          - 1341969.78      -     -    8s
     0     0 1341969.78    0  887          - 1341969.78      -     -    8s
     0     0 1341969.78    0  904          - 1341969.78      -     -    8s
     0     0 1342004.41    0  637          - 1342004.41      -     -    8s
     0     0 1342004.41    0  647          - 1342004.41      -     -    8s
     0     0 1342013.17    0  939          - 1342013.17      -     -    9s
     0     0 1342013.17    0  953          - 1342013.17      -     -    9s
     0     0 1342014.93    0 1014          - 1342014.93      -     -    9s
     0     0 1342014.93    0 1009          - 1342014.93      -     -    9s
     0     0 1342015.86    0 1041          - 1342015.86      -     -   10s
     0     0 1342015.86    0 1037          - 1342015.86      -     -   10s
     0     0 1342015.86    0 1042          - 1342015.86      -     -   10s
     0     0 1342022.30    0  636          - 1342022.30      -     -   13s
     0     2 1342022.30    0  636          - 1342022.30      -     -   24s
     3     8 1342260.06    2  643          - 1342217.31      -  76.7   25s
    15    32 1342458.98    4  927          - 1342260.06      -   693   31s
    31    64 1342459.64    5  941          - 1342444.50      -  1446   35s
    95   138 1342460.17    7  938          - 1342445.08      -  1097   42s
   167   196 1344185.14    9  926          - 1342445.08      -   912   45s
   366   383 1345707.61   14  919          - 1342445.08      -   715   54s
   448   451 1345707.61   15  916          - 1342445.08      -   664   59s
   534   514 1345707.61   17  906          - 1342445.08      -   644   66s
   694   674 1345707.61   20  868          - 1342445.08      -   607   71s
   855   846 1345707.61   21  865          - 1342445.08      -   555   75s
  1035  1007 1345707.61   25  866          - 1342445.08      -   513   82s
  1195  1167 1345707.61   26  868          - 1342445.08      -   499   85s
  1491  1505 1345707.61   31  863          - 1342445.08      -   463   91s
  1742  1741 1345707.61   36  835          - 1342445.08      -   436   96s
  1871  1882 1345707.61   39  825          - 1342445.08      -   425  100s
  2014  2026 1345707.61   43  808          - 1342445.08      -   413  106s
  2319  2327 1345868.51   50  813          - 1342445.08      -   396  110s
  2680  2648 1345868.51   56  795          - 1342445.08      -   374  121s
  2854  2826 1345868.51   59  771          - 1342445.08      -   372  130s
  3050  3039 1345869.45   64  728          - 1342445.08      -   370  137s
  3277  3267 1345869.45   67  727          - 1342445.08      -   363  148s
  3535  3505 1345869.45   72  711          - 1342445.08      -   356  205s
  3815  3776 1345869.45   77  667          - 1342445.08      -   351  284s
  4116  3971 1346010.92   81  732          - 1342445.08      -   343  420s
  4397  4271 1346026.07   86  698          - 1342445.08      -   343  509s
  4765  4536 1346026.09   96  673          - 1342445.08      -   337  585s
  5110  4734 infeasible   99               - 1342445.08      -   334  639s
  5408  4911 infeasible  100               - 1342459.64      -   340  655s
  5747  5136 1343302.27    8  844          - 1342459.64      -   345  715s
  6058  5433 1344405.55   12  860          - 1342459.64      -   354  827s
  6465  5769 1344405.58   20  852          - 1342459.64      -   358  933s
  6879  5993 1344405.58   25  825          - 1342459.64      -   358 1004s
  7215  6253 1344405.58   36  761          - 1342459.64      -   367 1159s
  7605  6556 1344405.58   41  754          - 1342459.64      -   371 1256s
  8057  6557 1470965.77   37  174          - 1342459.64      -   383 1261s
  NLP heuristic elapsed time = 5.00s
  NLP heuristic elapsed time = 10.02s
  NLP heuristic elapsed time = 15.03s
  8058  6558 1365940.29   46  174          - 1342459.64      -   383 1277s
  8059  6558 1368550.00   21    0          - 1342459.64      -   383 1282s
  8060  6559 1343611.80   24  176          - 1342459.64      -   383 1287s
  8061  6560 1344494.35   78  223          - 1342459.64      -   383 1292s
  8062  6560 1857676.20   68    6          - 1342459.64      -   383 1304s
  8063  6561 1345474.74   54  121          - 1342459.64      -   383 1311s
  8067  6564 1344321.47   17    9          - 1342459.64      -   383 1344s
  8068  6564 1356582.38   70    9          - 1342459.64      -   383 1347s
  8069  6568 1342459.64   11  647          - 1342459.64      -   385 1563s
  8071  6571 1343549.71   12  625          - 1342459.64      -   385 1569s
  8075  6576 1343773.56   13  621          - 1343549.71      -   385 1580s
  8097  6593 1368763.56   15  612          - 1343861.38      -   385 1592s
  8123  6608 1368911.11   16  613          - 1343867.10      -   384 1600s
  8155  6627 infeasible   17               - 1343867.10      -   386 1611s
  8227  6595 infeasible   18               - 1343868.47      -   389 1627s
  8285  6592 1353671.82   18  633          - 1343868.47      -   393 1643s
  8355  6613 1359392.30   20  632          - 1344178.91      -   397 1651s
  8437  6654 1368621.99   22  632          - 1344178.91      -   396 1658s
  8522  6694 1360162.12   23  633          - 1349899.39      -   395 1667s
  8598  6736 1362467.06   23  632          - 1349899.39      -   394 1714s
  8669  6783 1361317.69   25  629          - 1349899.39      -   393 1724s
  8744  6839 1362294.40   26  630          - 1349899.39      -   392 1728s
  8825  6887 1361807.35   27  629          - 1349899.39      -   391 1744s
  8902  6953 1361394.19   29  629          - 1349899.39      -   390 1758s
  8996  7016 1361396.13   30  629          - 1349899.39      -   389 1770s
  9094  7068 1366092.84   31  637          - 1349899.39      -   390 1780s
  9179  7128 1366104.46   32  637          - 1349899.39      -   392 1788s
  9267  7197 1366096.83   32  637          - 1349899.39      -   393 1794s
  9367  7250 1366096.60   36  637          - 1349899.39      -   393 1798s
  9454  7320 1366096.55   38  620          - 1349899.39      -   395 1803s
  9553  7394 1366096.55   39  635          - 1349899.39      -   396 1812s
  9660  7451 1366096.55   42  632          - 1349899.39      -   398 1820s
  9754  7520 1366096.55   43  631          - 1349899.39      -   400 1829s
  9855  7602 1366096.55   44  630          - 1349899.39      -   402 1848s
  9974  7677 1366096.55   45  629          - 1349899.39      -   404 1858s
 10091  7721 1366096.55   46  628          - 1349899.39      -   405 1927s
 10176  7813 1366096.55   45  629          - 1349899.39      -   408 1940s
 10296  7931 1366096.55   49  625          - 1349899.39      -   410 1948s
 10454  8031 1366096.55   51  627          - 1349899.39      -   411 1959s
 10611  8144 1366096.55   50  615          - 1349899.39      -   412 1978s
 10778  8257 1366096.55   51  596          - 1349899.39      -   414 1993s
 10953  8395 1366096.55   55  603          - 1349899.39      -   415 2006s
 11161  8519 1366096.55   55  582          - 1349899.39      -   416 2026s
 11371  8671 1366096.55   59  579          - 1349899.39      -   418 2125s
 11611  8816 1366096.55   61  601          - 1349899.39      -   420 2288s
 11868  9008 1366096.55   64  544          - 1349899.39      -   421 2329s
 12195  9130 1366096.55   68  539          - 1349899.39      -   421 2391s
 12492  9267 1366096.55   74  537          - 1349899.39      -   425 2514s
 12790  9448 1366096.55   79  530          - 1349899.39      -   431 2717s
 13163  9530 1366644.68   82  554          - 1349899.39      -   434 2911s
 13499  9776 1366096.55   95  489          - 1349899.39      -   438 3050s
 13983  9851 1366096.55  105  470          - 1349899.39      -   440 3230s
 14425  9956 infeasible  110               - 1349899.39      -   444 3478s
 14858  9883 1826174.93  114  515          - 1349899.39      -   447 3569s
 15061 10019 infeasible  114               - 1349899.39      -   456 3582s
 15387 10198 1826252.33  115  495          - 1349899.39      -   465 3596s
 15784 10483 1349899.39   72  503          - 1349899.39      -   472 3600s

Cutting planes:
  Cover: 9
  Implied bound: 17
  RLT: 50
  Relax-and-lift: 1

Explored 16332 nodes (7691347 simplex iterations) in 3600.03 seconds (287.12 work units)
Thread count was 32 (of 64 available processors)

Solution count 0

Time limit reached
Best objective -, best bound 1.349899389178e+06, gap -
Gurobi 12.0.1: time limit, without a feasible solution
7.69135e+06 simplex iterations
16332 branching nodes
con2_1,25: -0.00000000
con2_2,48: -0.00000010
con2_2,89: -0.00000005
con2_2,109: -0.00000003
con2_3,12: -0.00000000
con2_4,18: -0.00018426
con2_5,58: -0.00000000
con2_5,114: -0.00000001
con2_6,10: -0.00000000
con2_7,34: -0.00458211
con2_8,78: -0.00000001
con2_9,22: -0.00000001
con2_9,29: -0.00000000
con2_9,59: -0.00000000
con2_10,72: -0.00000000
con2_11,48: -0.00000003
con2_11,52: -0.00000002
con2_12,22: -0.00000000
con2_13,45: -0.00769326
con2_14,97: -0.00000000
con2_15,128: -0.00000000
con2_16,110: -0.00000000
con2_17,54: -0.00000002
con2_17,83: -0.00000004
con2_18,23: -0.00000198
con2_19,84: -0.00085946
con2_20,18: -0.00000134
con2_20,23: -0.00000090
con2_20,50: -0.00000095
con2_21,68: -0.00000308
con2_21,130: -0.00000029
con2_22,135: -0.00000000
con2_23,65: -0.00000035
con2_24,8: -0.00000001
con2_24,36: -0.00000000
con2_24,99: -0.00000000
con2_25,49: -0.00000000
con2_26,16: -0.00000000
con2_27,14: -0.00000001
con2_27,65: -0.00000001
con2_27,94: -0.00000003
con2_28,111: -0.00000005
con2_29,103: -0.00000000
con2_30,38: -0.00062002
con2_31,37: -0.00000000
con2_31,104: -0.00000002
con2_32,58: -0.00000000
con2_32,67: -0.00000000
con2_33,45: -0.00000000
con2_34,78: -0.00082113
con2_35,44: -0.00000000
con2_35,85: -0.00000000
con2_36,75: -0.00000000
con2_37,5: -0.00000274
con2_37,76: -0.00000000
con2_38,130: -0.00013528
con2_39,17: -0.00000003
con2_40,43: -0.00000001
con2_41,17: -0.00000006
con2_41,54: -0.00000003
con2_42,36: -0.00000000
con2_42,69: -0.00000001
con2_43,10: -0.00000011
con2_44,66: -0.00000000
con2_45,125: -0.00000000
con2_46,64: -0.00000000
con2_47,53: -0.00000003
con2_47,91: -0.00000008
con2_48,52: -0.00000001
con2_49,33: -0.00000000
con2_50,4: -0.00328222
con2_51,28: -0.00000001
con2_52,81: -0.00000000
con2_53,63: -0.00000001
con2_53,91: -0.00000001
con2_54,93: -0.00000602
con2_55,77: -0.00000000
con2_55,97: -0.00000000
con2_55,100: -0.00000001
con2_56,54: -0.00000001
con2_56,90: -0.00000001
con2_57,31: -0.00000000
con2_58,60: -0.00000000
con2_59,126: -0.00000000
con2_60,32: -0.00000001
con2_60,57: -0.00000008
con2_60,74: -0.00000000
con2_61,93: -0.00000741
con2_62,42: -0.00000000
con2_63,87: -0.00000000
con2_64,91: -0.00000000
con2_65,96: -0.00000001
con2_66,85: -0.00000000
con2_67,16: -0.00000000
con2_68,20: -0.00000011
con2_68,94: -0.00000015
con2_69,106: -0.00000001
con2_70,87: -0.00000000
con2_71,9: -0.00000000
con2_71,119: -0.00000001
con2_72,62: -0.00000000
con2_73,28: -0.00000001
con2_73,32: -0.00000000
con2_74,26: -0.00000000
con2_74,67: -0.00000000
con2_75,42: -0.00000000
con2_75,101: -0.00000000
con2_76,5: -0.00000000
con2_76,59: -0.00000000
con2_76,126: -0.00000000
con2_77,57: -0.00000000
con2_78,47: -0.00000002
con2_78,53: -0.00000013
con2_79,71: -0.00000000
con2_80,6: -0.00002782
con2_80,10: -0.00000001
con2_81,104: -0.00000000
con2_82,80: -0.00000003
con2_83,39: -0.00000004
con2_83,40: -0.00000001
con2_84,123: -0.00019276
con2_85,6: -0.00000000
con2_85,43: -0.00000001
con2_86,28: -0.00000018
con2_86,58: -0.00000002
con2_87,77: -0.00000000
con2_88,114: -0.00047881
con2_89,80: -0.00000004
con2_89,109: -0.00000752
con2_90,1: -0.00000000
con2_91,87: -0.00000000
con2_92,111: -0.00000004
con2_93,19: -0.00006246
con2_94,129: -0.00000012
con2_95,51: -0.00000007
con2_95,73: -0.00000000
con2_96,47: -0.00000001
con2_97,100: -0.00000000
con2_98,118: -0.00282487
con2_99,63: -0.00000000
con2_100,46: -0.00000000
con2_101,24: -0.00000001
con2_101,70: -0.00000000
con2_102,35: -0.00000000
con2_102,134: -0.00000000
con2_103,51: -0.00000000
con2_103,95: -0.00000000
con2_104,101: -0.00000000
con2_105,103: -0.00000000
con2_105,108: -0.00000002
con2_106,75: -0.00000001
con2_107,116: -0.00000167
con2_108,95: -0.00000000
con2_109,52: -0.00000504
con2_109,82: -0.00000003
con2_110,14: -0.00000000
con2_110,49: -0.00000000
con2_111,86: -0.00000004
con2_111,114: -0.00000004
con2_112,29: -0.00000001
con2_112,105: -0.00000000
con2_112,108: -0.00000000
con2_113,2: -0.00000001
con2_114,92: -0.00000004
con2_115,22: -0.00000001
con2_115,138: -0.00000000
con2_116,142: -0.00000048
con2_117,79: -0.00000000
con2_118,90: -0.00000206
con2_119,115: -0.00000001
con2_120,39: -0.00000217
con2_121,128: -0.00000000
con2_122,107: -0.00000217
con2_123,50: -0.00000109
con2_124,121: -0.00000055
con2_125,1: -0.00000000
con2_125,49: -0.00000000
con2_126,11: -0.00000001
con2_126,104: -0.00000000
con2_127,136: -0.00000009
con2_128,112: -0.00000000
con2_129,21: -0.00000016
con2_130,61: -0.00000568
con2_130,93: -0.00000670
con2_131,102: -0.00000627
con2_132,133: -0.00000242
con2_133,41: -0.00000042
con2_134,141: -0.00000000
con2_135,59: -0.00000000
con2_135,113: -0.00000001
con2_136,141: -0.00000002
con2_137,143: -0.00000000
con2_138,3: -0.00000000
con2_139,134: -0.00000000
con2_140,121: -0.00000000
con2_141,102: -0.00000000
con2_142,15: -0.00000000
con2_143,79: -0.00000000
con2_143,117: -0.00000000
total_cost: 9007282.800920501
solve_time: 3600.3654720000004
